3D\Atomistic                            
   1.0000000000000000     
    30.0000000000000000    0.0000000000000000    0.0000000000000000
     0.0000000000000000   30.0000000000000000    0.0000000000000000
     0.0000000000000000    0.0000000000000000   30.0000000000000000
   Cd   Se
    24    28
Direct
  0.6339153710643899  0.6003873194171305  0.5328145468039125
  0.4274000725205838  0.3654938993985084  0.5377993505939642
  0.4137638707467559  0.4731502128701024  0.3538980989511415
  0.3894282868504959  0.5048230889175755  0.4661518837052796
  0.5052120011035584  0.3993234869941205  0.3431940551217352
  0.4868790350322172  0.4236916638905726  0.4462336898790724
  0.5962204848449133  0.3568441728132754  0.4572367846701439
  0.4348356419390669  0.5896682475301134  0.3541525626080571
  0.3640385102862780  0.6204028708521960  0.4522396483725117
  0.5299030976297416  0.5154803726565760  0.3134954574790072
  0.5363326270061393  0.5667501680574674  0.4495943819754018
  0.6102013237230537  0.4661718823076555  0.3912904392729004
  0.6154713810668326  0.4819467458138433  0.5063545625625494
  0.5329093558391591  0.6590688925703461  0.3340624294853782
  0.4560788803720044  0.6760499518026464  0.4526969507798384
  0.6243350517075257  0.5767381354124979  0.3623347651832631
  0.6047944934694414  0.6845207947262821  0.4583142785147132
  0.7207423228641971  0.6401344529577102  0.4852803313942573
  0.4673280587941093  0.4803531657922306  0.5705262873784207
  0.5375364625004977  0.3609415092839185  0.5454672329528094
  0.4223644009453054  0.5752590368297632  0.5632237603687997
  0.5599541235036938  0.5478185499731723  0.6078131557522468
  0.5614268361382599  0.4210279095026479  0.6442202938591564
  0.5188899446440871  0.6514016931791105  0.5604869869737570
  0.3559616332960900  0.5421622347197399  0.3464811159560313
  0.4689730046444751  0.4510972282036008  0.2879527784447973
  0.4063921253460734  0.6798073817691375  0.3380550655799865
  0.4945701740208435  0.5914251846032954  0.2911918199842916
  0.6194888889460088  0.5045734712202048  0.3135121824867824
  0.4700070730708674  0.7221163081879283  0.3235996313218408
  0.6257724319326314  0.6584600195140027  0.3326722395661648
  0.3211999753854684  0.5483953410557731  0.4185944394268972
  0.4011640922149340  0.4269373707050832  0.4274642909515904
  0.3839308337868133  0.4965267666847524  0.5546039453278837
  0.5217927352746159  0.3487200341995091  0.4077160546392804
  0.5301563195807120  0.4437954121640431  0.5226239836084829
  0.5844259141260792  0.2982879276232637  0.5204990038808077
  0.4420429929716008  0.5758242422100892  0.4408205292860288
  0.3790897880181063  0.6482669820889626  0.5427816914156551
  0.5250613808718398  0.4920560117349524  0.4028331490780985
  0.5088423273033058  0.5655930604004951  0.5352337065770811
  0.6527436388289871  0.4226192528486550  0.4521737779776700
  0.6390604922722858  0.5262739054909957  0.5801121014575159
  0.3806900524205119  0.7003181412248267  0.4126795595482946
  0.5321865971851381  0.6525582906636984  0.4232417333135672
  0.4431022455912270  0.6968494299699088  0.5380206297681269
  0.6277274188965478  0.5599690145006520  0.4514993181280147
  0.6015052342020368  0.6805266632548523  0.5453003351658339
  0.6601789736930357  0.6963655706779122  0.3941737607016904
  0.4574758349597943  0.5767635294308988  0.6540116738572905
  0.4943210722866809  0.5028719977314964  0.6539495180739578
  0.5217653632809771  0.6232511555718361  0.6494795758380363

  0.00000000E+00  0.00000000E+00  0.00000000E+00
  0.00000000E+00  0.00000000E+00  0.00000000E+00
  0.00000000E+00  0.00000000E+00  0.00000000E+00
  0.00000000E+00  0.00000000E+00  0.00000000E+00
  0.00000000E+00  0.00000000E+00  0.00000000E+00
  0.00000000E+00  0.00000000E+00  0.00000000E+00
  0.00000000E+00  0.00000000E+00  0.00000000E+00
  0.00000000E+00  0.00000000E+00  0.00000000E+00
  0.00000000E+00  0.00000000E+00  0.00000000E+00
  0.00000000E+00  0.00000000E+00  0.00000000E+00
  0.00000000E+00  0.00000000E+00  0.00000000E+00
  0.00000000E+00  0.00000000E+00  0.00000000E+00
  0.00000000E+00  0.00000000E+00  0.00000000E+00
  0.00000000E+00  0.00000000E+00  0.00000000E+00
  0.00000000E+00  0.00000000E+00  0.00000000E+00
  0.00000000E+00  0.00000000E+00  0.00000000E+00
  0.00000000E+00  0.00000000E+00  0.00000000E+00
  0.00000000E+00  0.00000000E+00  0.00000000E+00
  0.00000000E+00  0.00000000E+00  0.00000000E+00
  0.00000000E+00  0.00000000E+00  0.00000000E+00
  0.00000000E+00  0.00000000E+00  0.00000000E+00
  0.00000000E+00  0.00000000E+00  0.00000000E+00
  0.00000000E+00  0.00000000E+00  0.00000000E+00
  0.00000000E+00  0.00000000E+00  0.00000000E+00
  0.00000000E+00  0.00000000E+00  0.00000000E+00
  0.00000000E+00  0.00000000E+00  0.00000000E+00
  0.00000000E+00  0.00000000E+00  0.00000000E+00
  0.00000000E+00  0.00000000E+00  0.00000000E+00
  0.00000000E+00  0.00000000E+00  0.00000000E+00
  0.00000000E+00  0.00000000E+00  0.00000000E+00
  0.00000000E+00  0.00000000E+00  0.00000000E+00
  0.00000000E+00  0.00000000E+00  0.00000000E+00
  0.00000000E+00  0.00000000E+00  0.00000000E+00
  0.00000000E+00  0.00000000E+00  0.00000000E+00
  0.00000000E+00  0.00000000E+00  0.00000000E+00
  0.00000000E+00  0.00000000E+00  0.00000000E+00
  0.00000000E+00  0.00000000E+00  0.00000000E+00
  0.00000000E+00  0.00000000E+00  0.00000000E+00
  0.00000000E+00  0.00000000E+00  0.00000000E+00
  0.00000000E+00  0.00000000E+00  0.00000000E+00
  0.00000000E+00  0.00000000E+00  0.00000000E+00
  0.00000000E+00  0.00000000E+00  0.00000000E+00
  0.00000000E+00  0.00000000E+00  0.00000000E+00
  0.00000000E+00  0.00000000E+00  0.00000000E+00
  0.00000000E+00  0.00000000E+00  0.00000000E+00
  0.00000000E+00  0.00000000E+00  0.00000000E+00
  0.00000000E+00  0.00000000E+00  0.00000000E+00
  0.00000000E+00  0.00000000E+00  0.00000000E+00
  0.00000000E+00  0.00000000E+00  0.00000000E+00
  0.00000000E+00  0.00000000E+00  0.00000000E+00
  0.00000000E+00  0.00000000E+00  0.00000000E+00
  0.00000000E+00  0.00000000E+00  0.00000000E+00
