Automatic mesh 
0
GMonkhorst Pack
  1   1   1      
  0.  0.  0.
