3D\Atomistic                            
   1.0000000000000000     
    30.0000000000000000    0.0000000000000000    0.0000000000000000
     0.0000000000000000   30.0000000000000000    0.0000000000000000
     0.0000000000000000    0.0000000000000000   30.0000000000000000
   Cd   Se
    24    28
Direct
  0.6339153710643934  0.6003873194171330  0.5328145468039136
  0.4274000725205805  0.3654938993985055  0.5377993505939664
  0.4137638707467583  0.4731502128700993  0.3538980989511389
  0.3894282868504934  0.5048230889175754  0.4661518837052767
  0.5052120011035597  0.3993234869941240  0.3431940551217328
  0.4868790350322143  0.4236916638905715  0.4462336898790693
  0.5962204848449124  0.3568441728132768  0.4572367846701459
  0.4348356419390665  0.5896682475301119  0.3541525626080542
  0.3640385102862748  0.6204028708521935  0.4522396483725095
  0.5299030976297403  0.5154803726565746  0.3134954574790059
  0.5363326270061368  0.5667501680574699  0.4495943819754004
  0.6102013237230506  0.4661718823076524  0.3912904392729025
  0.6154713810668311  0.4819467458138439  0.5063545625625524
  0.5329093558391572  0.6590688925703481  0.3340624294853774
  0.4560788803720021  0.6760499518026463  0.4526969507798380
  0.6243350517075270  0.5767381354125003  0.3623347651832659
  0.6047944934694448  0.6845207947262789  0.4583142785147105
  0.7207423228641944  0.6401344529577134  0.4852803313942606
  0.4673280587941063  0.4803531657922295  0.5705262873784199
  0.5375364625004966  0.3609415092839156  0.5454672329528073
  0.4223644009453053  0.5752590368297600  0.5632237603687973
  0.5599541235036936  0.5478185499731716  0.6078131557522480
  0.5614268361382572  0.4210279095026448  0.6442202938591555
  0.5188899446440876  0.6514016931791107  0.5604869869737549
  0.3559616332960870  0.5421622347197417  0.3464811159560325
  0.4689730046444736  0.4510972282036002  0.2879527784447962
  0.4063921253460742  0.6798073817691378  0.3380550655799865
  0.4945701740208402  0.5914251846032976  0.2911918199842886
  0.6194888889460082  0.5045734712202025  0.3135121824867858
  0.4700070730708702  0.7221163081879289  0.3235996313218436
  0.6257724319326322  0.6584600195140029  0.3326722395661633
  0.3211999753854689  0.5483953410557715  0.4185944394268956
  0.4011640922149342  0.4269373707050862  0.4274642909515926
  0.3839308337868134  0.4965267666847536  0.5546039453278835
  0.5217927352746129  0.3487200341995123  0.4077160546392810
  0.5301563195807151  0.4437954121640408  0.5226239836084823
  0.5844259141260827  0.2982879276232603  0.5204990038808058
  0.4420429929716040  0.5758242422100879  0.4408205292860258
  0.3790897880181097  0.6482669820889616  0.5427816914156572
  0.5250613808718377  0.4920560117349556  0.4028331490780963
  0.5088423273033067  0.5655930604004979  0.5352337065770829
  0.6527436388289873  0.4226192528486535  0.4521737779776678
  0.6390604922722849  0.5262739054909931  0.5801121014575170
  0.3806900524205085  0.7003181412248295  0.4126795595482951
  0.5321865971851409  0.6525582906636975  0.4232417333135685
  0.4431022455912271  0.6968494299699098  0.5380206297681303
  0.6277274188965473  0.5599690145006485  0.4514993181280144
  0.6015052342020398  0.6805266632548491  0.5453003351658351
  0.6601789736930351  0.6963655706779104  0.3941737607016911
  0.4574758349597916  0.5767635294309011  0.6540116738572910
  0.4943210722866808  0.5028719977314935  0.6539495180739544
  0.5217653632809766  0.6232511555718329  0.6494795758380389

  0.00000000E+00  0.00000000E+00  0.00000000E+00
  0.00000000E+00  0.00000000E+00  0.00000000E+00
  0.00000000E+00  0.00000000E+00  0.00000000E+00
  0.00000000E+00  0.00000000E+00  0.00000000E+00
  0.00000000E+00  0.00000000E+00  0.00000000E+00
  0.00000000E+00  0.00000000E+00  0.00000000E+00
  0.00000000E+00  0.00000000E+00  0.00000000E+00
  0.00000000E+00  0.00000000E+00  0.00000000E+00
  0.00000000E+00  0.00000000E+00  0.00000000E+00
  0.00000000E+00  0.00000000E+00  0.00000000E+00
  0.00000000E+00  0.00000000E+00  0.00000000E+00
  0.00000000E+00  0.00000000E+00  0.00000000E+00
  0.00000000E+00  0.00000000E+00  0.00000000E+00
  0.00000000E+00  0.00000000E+00  0.00000000E+00
  0.00000000E+00  0.00000000E+00  0.00000000E+00
  0.00000000E+00  0.00000000E+00  0.00000000E+00
  0.00000000E+00  0.00000000E+00  0.00000000E+00
  0.00000000E+00  0.00000000E+00  0.00000000E+00
  0.00000000E+00  0.00000000E+00  0.00000000E+00
  0.00000000E+00  0.00000000E+00  0.00000000E+00
  0.00000000E+00  0.00000000E+00  0.00000000E+00
  0.00000000E+00  0.00000000E+00  0.00000000E+00
  0.00000000E+00  0.00000000E+00  0.00000000E+00
  0.00000000E+00  0.00000000E+00  0.00000000E+00
  0.00000000E+00  0.00000000E+00  0.00000000E+00
  0.00000000E+00  0.00000000E+00  0.00000000E+00
  0.00000000E+00  0.00000000E+00  0.00000000E+00
  0.00000000E+00  0.00000000E+00  0.00000000E+00
  0.00000000E+00  0.00000000E+00  0.00000000E+00
  0.00000000E+00  0.00000000E+00  0.00000000E+00
  0.00000000E+00  0.00000000E+00  0.00000000E+00
  0.00000000E+00  0.00000000E+00  0.00000000E+00
  0.00000000E+00  0.00000000E+00  0.00000000E+00
  0.00000000E+00  0.00000000E+00  0.00000000E+00
  0.00000000E+00  0.00000000E+00  0.00000000E+00
  0.00000000E+00  0.00000000E+00  0.00000000E+00
  0.00000000E+00  0.00000000E+00  0.00000000E+00
  0.00000000E+00  0.00000000E+00  0.00000000E+00
  0.00000000E+00  0.00000000E+00  0.00000000E+00
  0.00000000E+00  0.00000000E+00  0.00000000E+00
  0.00000000E+00  0.00000000E+00  0.00000000E+00
  0.00000000E+00  0.00000000E+00  0.00000000E+00
  0.00000000E+00  0.00000000E+00  0.00000000E+00
  0.00000000E+00  0.00000000E+00  0.00000000E+00
  0.00000000E+00  0.00000000E+00  0.00000000E+00
  0.00000000E+00  0.00000000E+00  0.00000000E+00
  0.00000000E+00  0.00000000E+00  0.00000000E+00
  0.00000000E+00  0.00000000E+00  0.00000000E+00
  0.00000000E+00  0.00000000E+00  0.00000000E+00
  0.00000000E+00  0.00000000E+00  0.00000000E+00
  0.00000000E+00  0.00000000E+00  0.00000000E+00
  0.00000000E+00  0.00000000E+00  0.00000000E+00
