!   File created by MacMolPlt 7.7.2
 $CONTRL SCFTYP=RHF RUNTYP=OPTIMIZE DFTTYP=B3LYP MAXIT=30 MULT=1 $END
 $SYSTEM TIMLIM=525600 MEMORY=1000000 $END
 $BASIS GBASIS=N31 NGAUSS=6 $END
 $SCF DIRSCF=.TRUE. $END
 $STATPT OPTTOL=0.0001 NSTEP=20 $END
 $DATA 
methane_oprimize_at_b3lyp
C1
CARBON      6.0     -1.022783133        -0.000000250         0.697801880
HYDROGEN    1.0     -2.043475133        -0.008907250         1.096821880
HYDROGEN    1.0     -0.504723133        -0.879491250         1.096821880
HYDROGEN    1.0     -0.520151133         0.888398750         1.096821880
HYDROGEN    1.0     -1.022783133        -0.000000250        -0.382198120
 $END
